#===============================================================================
# Created using the Atomic Simulation Environment (ASE)

# Tue Oct 29 12:57:02 2024

#=======================================================
lattice_vector 14.0000000000000000 0.0000000000000000 0.0000000000000000 
lattice_vector 0.0000000000000000 12.0000000000000000 0.0000000000000000 
lattice_vector 0.0000000000000000 0.0000000000000000 14.0000000000000000 
atom 8.0007486100000005 4.4744098299999999 3.6097447300000001 O
atom 8.1425878399999991 6.7413734099999996 3.6027144000000000 N
atom 5.9287236099999996 5.7081477500000002 3.6027579200000002 C
atom 7.4416092400000000 5.5650307600000000 3.5973969100000001 C
atom 5.4970830599999996 4.8942886400000001 3.0118896400000001 H
atom 5.5680380800000000 5.6012171999999998 4.6351165700000001 H
atom 5.5775914499999999 6.6715638000000004 3.2124010300000001 H
atom 9.1535268999999992 6.6991259300000001 3.6414654099999999 H
atom 7.6900912200000002 7.6448426800000000 3.5989133799999999 H
