#===============================================================================
# Created using the Atomic Simulation Environment (ASE)

# Tue Oct 29 12:57:02 2024

#=======================================================
lattice_vector 15.3159328800000001 0.0000000000000000 0.0000000000000000 
lattice_vector 7.6579664400000000 13.2639869600000004 0.0000000000000000 
lattice_vector 0.0000000000000000 0.0000000000000000 32.1684689399999968 
atom 1.2763277399999999 0.7368881600000000 14.0000000000000000 Cu
    constrain_relaxation .true.
atom 3.8289832200000000 0.7368881600000000 14.0000000000000000 Cu
    constrain_relaxation .true.
atom 6.3816386999999999 0.7368881600000000 14.0000000000000000 Cu
    constrain_relaxation .true.
atom 8.9342941800000002 0.7368881600000000 14.0000000000000000 Cu
    constrain_relaxation .true.
atom 11.4869496600000005 0.7368881600000000 14.0000000000000000 Cu
    constrain_relaxation .true.
atom 14.0396051400000008 0.7368881600000000 14.0000000000000000 Cu
    constrain_relaxation .true.
atom 2.5526554799999999 2.9475526599999999 14.0000000000000000 Cu
    constrain_relaxation .true.
atom 5.1053109599999997 2.9475526599999999 14.0000000000000000 Cu
    constrain_relaxation .true.
atom 7.6579664400000000 2.9475526599999999 14.0000000000000000 Cu
    constrain_relaxation .true.
atom 10.2106219199999995 2.9475526599999999 14.0000000000000000 Cu
    constrain_relaxation .true.
atom 12.7632773999999998 2.9475526599999999 14.0000000000000000 Cu
    constrain_relaxation .true.
atom 15.3159328800000001 2.9475526599999999 14.0000000000000000 Cu
    constrain_relaxation .true.
atom 3.8289832200000000 5.1582171499999996 14.0000000000000000 Cu
    constrain_relaxation .true.
atom 6.3816386999999999 5.1582171499999996 14.0000000000000000 Cu
    constrain_relaxation .true.
atom 8.9342941800000002 5.1582171499999996 14.0000000000000000 Cu
    constrain_relaxation .true.
atom 11.4869496600000005 5.1582171499999996 14.0000000000000000 Cu
    constrain_relaxation .true.
atom 14.0396051400000008 5.1582171499999996 14.0000000000000000 Cu
    constrain_relaxation .true.
atom 16.5922606200000011 5.1582171499999996 14.0000000000000000 Cu
    constrain_relaxation .true.
atom 5.1053109599999997 7.3688816399999997 14.0000000000000000 Cu
    constrain_relaxation .true.
atom 7.6579664400000000 7.3688816399999997 14.0000000000000000 Cu
    constrain_relaxation .true.
atom 10.2106219199999995 7.3688816399999997 14.0000000000000000 Cu
    constrain_relaxation .true.
atom 12.7632773999999998 7.3688816399999997 14.0000000000000000 Cu
    constrain_relaxation .true.
atom 15.3159328800000001 7.3688816399999997 14.0000000000000000 Cu
    constrain_relaxation .true.
atom 17.8685883600000004 7.3688816399999997 14.0000000000000000 Cu
    constrain_relaxation .true.
atom 6.3816386999999999 9.5795461399999997 14.0000000000000000 Cu
    constrain_relaxation .true.
atom 8.9342941800000002 9.5795461399999997 14.0000000000000000 Cu
    constrain_relaxation .true.
atom 11.4869496600000005 9.5795461399999997 14.0000000000000000 Cu
    constrain_relaxation .true.
atom 14.0396051400000008 9.5795461399999997 14.0000000000000000 Cu
    constrain_relaxation .true.
atom 16.5922606200000011 9.5795461399999997 14.0000000000000000 Cu
    constrain_relaxation .true.
atom 19.1449160999999997 9.5795461399999997 14.0000000000000000 Cu
    constrain_relaxation .true.
atom 7.6579664400000000 11.7902106300000007 14.0000000000000000 Cu
    constrain_relaxation .true.
atom 10.2106219199999995 11.7902106300000007 14.0000000000000000 Cu
    constrain_relaxation .true.
atom 12.7632773999999998 11.7902106300000007 14.0000000000000000 Cu
    constrain_relaxation .true.
atom 15.3159328800000001 11.7902106300000007 14.0000000000000000 Cu
    constrain_relaxation .true.
atom 17.8685883600000004 11.7902106300000007 14.0000000000000000 Cu
    constrain_relaxation .true.
atom 20.4212438399999989 11.7902106300000007 14.0000000000000000 Cu
    constrain_relaxation .true.
atom -0.0000000000000000 1.4737763300000000 16.0842344699999984 Cu
    constrain_relaxation .true.
atom 2.5526554799999999 1.4737763300000000 16.0842344699999984 Cu
    constrain_relaxation .true.
atom 5.1053109599999997 1.4737763300000000 16.0842344699999984 Cu
    constrain_relaxation .true.
atom 7.6579664400000000 1.4737763300000000 16.0842344699999984 Cu
    constrain_relaxation .true.
atom 10.2106219199999995 1.4737763300000000 16.0842344699999984 Cu
    constrain_relaxation .true.
atom 12.7632773999999998 1.4737763300000000 16.0842344699999984 Cu
    constrain_relaxation .true.
atom 1.2763277399999999 3.6844408199999998 16.0842344699999984 Cu
    constrain_relaxation .true.
atom 3.8289832200000000 3.6844408199999998 16.0842344699999984 Cu
    constrain_relaxation .true.
atom 6.3816386999999999 3.6844408199999998 16.0842344699999984 Cu
    constrain_relaxation .true.
atom 8.9342941800000002 3.6844408199999998 16.0842344699999984 Cu
    constrain_relaxation .true.
atom 11.4869496600000005 3.6844408199999998 16.0842344699999984 Cu
    constrain_relaxation .true.
atom 14.0396051400000008 3.6844408199999998 16.0842344699999984 Cu
    constrain_relaxation .true.
atom 2.5526554799999999 5.8951053099999999 16.0842344699999984 Cu
    constrain_relaxation .true.
atom 5.1053109599999997 5.8951053099999999 16.0842344699999984 Cu
    constrain_relaxation .true.
atom 7.6579664400000000 5.8951053099999999 16.0842344699999984 Cu
    constrain_relaxation .true.
atom 10.2106219199999995 5.8951053099999999 16.0842344699999984 Cu
    constrain_relaxation .true.
atom 12.7632773999999998 5.8951053099999999 16.0842344699999984 Cu
    constrain_relaxation .true.
atom 15.3159328800000001 5.8951053099999999 16.0842344699999984 Cu
    constrain_relaxation .true.
atom 3.8289832200000000 8.1057698100000000 16.0842344699999984 Cu
    constrain_relaxation .true.
atom 6.3816386999999999 8.1057698100000000 16.0842344699999984 Cu
    constrain_relaxation .true.
atom 8.9342941800000002 8.1057698100000000 16.0842344699999984 Cu
    constrain_relaxation .true.
atom 11.4869496600000005 8.1057698100000000 16.0842344699999984 Cu
    constrain_relaxation .true.
atom 14.0396051400000008 8.1057698100000000 16.0842344699999984 Cu
    constrain_relaxation .true.
atom 16.5922606200000011 8.1057698100000000 16.0842344699999984 Cu
    constrain_relaxation .true.
atom 5.1053109599999997 10.3164342999999992 16.0842344699999984 Cu
    constrain_relaxation .true.
atom 7.6579664400000000 10.3164342999999992 16.0842344699999984 Cu
    constrain_relaxation .true.
atom 10.2106219199999995 10.3164342999999992 16.0842344699999984 Cu
    constrain_relaxation .true.
atom 12.7632773999999998 10.3164342999999992 16.0842344699999984 Cu
    constrain_relaxation .true.
atom 15.3159328800000001 10.3164342999999992 16.0842344699999984 Cu
    constrain_relaxation .true.
atom 17.8685883600000004 10.3164342999999992 16.0842344699999984 Cu
    constrain_relaxation .true.
atom 6.3816386999999999 12.5270987900000002 16.0842344699999984 Cu
    constrain_relaxation .true.
atom 8.9342941800000002 12.5270987900000002 16.0842344699999984 Cu
    constrain_relaxation .true.
atom 11.4869496600000005 12.5270987900000002 16.0842344699999984 Cu
    constrain_relaxation .true.
atom 14.0396051400000008 12.5270987900000002 16.0842344699999984 Cu
    constrain_relaxation .true.
atom 16.5922606200000011 12.5270987900000002 16.0842344699999984 Cu
    constrain_relaxation .true.
atom 19.1449160999999997 12.5270987900000002 16.0842344699999984 Cu
    constrain_relaxation .true.
atom -0.0000000900000000 0.0001978600000000 18.1525602699999986 Cu
atom 2.5526554300000002 0.0001978500000000 18.1525602299999989 Cu
atom 5.1053109299999999 0.0001978300000000 18.1525601600000002 Cu
atom 7.6579664300000001 0.0001978500000000 18.1525601600000002 Cu
atom 10.2106218999999996 0.0001979200000000 18.1525602200000016 Cu
atom 12.7632772800000005 0.0001978900000000 18.1525602100000008 Cu
atom 1.2763276500000000 2.2108623700000001 18.1525601600000002 Cu
atom 3.8289831699999999 2.2108623299999999 18.1525601600000002 Cu
atom 6.3816386100000004 2.2108622800000002 18.1525601499999993 Cu
atom 8.9342940500000001 2.2108622599999999 18.1525601899999991 Cu
atom 11.4869495199999996 2.2108623299999999 18.1525601999999999 Cu
atom 14.0396049999999999 2.2108623500000002 18.1525602299999989 Cu
atom 2.5526553800000000 4.4215268900000000 18.1525601300000012 Cu
atom 5.1053108099999998 4.4215268099999996 18.1525601499999993 Cu
atom 7.6579662500000003 4.4215267100000002 18.1525601999999999 Cu
atom 10.2106216500000002 4.4215267100000002 18.1525602200000016 Cu
atom 12.7632771900000002 4.4215268200000004 18.1525602600000013 Cu
atom 15.3159327500000000 4.4215268800000000 18.1525601999999999 Cu
atom 3.8289832800000001 6.6321913400000003 18.1525601600000002 Cu
atom 6.3816387199999998 6.6321912899999997 18.1525602100000008 Cu
atom 8.9342941299999996 6.6321911699999996 18.1525602600000013 Cu
atom 11.4869495799999992 6.6321912400000000 18.1525602200000016 Cu
atom 14.0396051499999999 6.6321913900000000 18.1525601899999991 Cu
atom 16.5922606700000017 6.6321914900000003 18.1525601600000002 Cu
atom 5.1053109599999997 8.8428558699999993 18.1525602100000008 Cu
atom 7.6579664500000000 8.8428557800000007 18.1525602500000005 Cu
atom 10.2106219500000002 8.8428557699999999 18.1525602799999994 Cu
atom 12.7632773799999999 8.8428558200000005 18.1525602399999997 Cu
atom 15.3159330199999992 8.8428559599999996 18.1525601399999985 Cu
atom 17.8685884399999999 8.8428559799999995 18.1525601799999983 Cu
atom 6.3816386800000000 11.0535203400000004 18.1525601700000010 Cu
atom 8.9342941499999995 11.0535203000000006 18.1525602699999986 Cu
atom 11.4869496400000006 11.0535203099999997 18.1525602299999989 Cu
atom 14.0396051499999999 11.0535203200000005 18.1525601899999991 Cu
atom 16.5922606600000009 11.0535204700000005 18.1525601600000002 Cu
atom 19.1449161299999986 11.0535204300000007 18.1525601899999991 Cu
