Au                                      
   1.00000000000000     
    23.0799653379289147    0.0000000000000000    0.0000000000000000
     0.0000000000000000   19.9878363011107325    0.0000000000000000
     0.0000000000000000    0.0000000000000000   34.7111781965873476
  Au           
             192
Selective dynamics
Direct
  0.0625000000000000  0.0416666666666643  0.0000288091632683   F   F   F
  0.1875000000000000  0.0416666666666643  0.0000288091632683   F   F   F
  0.3125000000000000  0.0416666666666643  0.0000288091632683   F   F   F
  0.4375000000000000  0.0416666666666643  0.0000288091632683   F   F   F
  0.5625000000000000  0.0416666666666643  0.0000288091632683   F   F   F
  0.6875000000000000  0.0416666666666643  0.0000288091632683   F   F   F
  0.8125000000000000  0.0416666666666643  0.0000288091632683   F   F   F
  0.9375000000000000  0.0416666666666643  0.0000288091632683   F   F   F
  0.0000000000000000  0.1666666666666643  0.0000288091632683   F   F   F
  0.1250000000000000  0.1666666666666643  0.0000288091632683   F   F   F
  0.2500000000000000  0.1666666666666643  0.0000288091632683   F   F   F
  0.3750000000000000  0.1666666666666643  0.0000288091632683   F   F   F
  0.5000000000000000  0.1666666666666643  0.0000288091632683   F   F   F
  0.6250000000000000  0.1666666666666643  0.0000288091632683   F   F   F
  0.7500000000000000  0.1666666666666643  0.0000288091632683   F   F   F
  0.8750000000000000  0.1666666666666643  0.0000288091632683   F   F   F
  0.0625000000000000  0.2916666666666643  0.0000288091632683   F   F   F
  0.1875000000000000  0.2916666666666643  0.0000288091632683   F   F   F
  0.3125000000000000  0.2916666666666643  0.0000288091632683   F   F   F
  0.4375000000000000  0.2916666666666643  0.0000288091632683   F   F   F
  0.5625000000000000  0.2916666666666643  0.0000288091632683   F   F   F
  0.6875000000000000  0.2916666666666643  0.0000288091632683   F   F   F
  0.8125000000000000  0.2916666666666643  0.0000288091632683   F   F   F
  0.9375000000000000  0.2916666666666643  0.0000288091632683   F   F   F
  0.0000000000000000  0.4166666666666643  0.0000288091632683   F   F   F
  0.1250000000000000  0.4166666666666643  0.0000288091632683   F   F   F
  0.2500000000000000  0.4166666666666643  0.0000288091632683   F   F   F
  0.3750000000000000  0.4166666666666643  0.0000288091632683   F   F   F
  0.5000000000000000  0.4166666666666643  0.0000288091632683   F   F   F
  0.6250000000000000  0.4166666666666643  0.0000288091632683   F   F   F
  0.7500000000000000  0.4166666666666643  0.0000288091632683   F   F   F
  0.8750000000000000  0.4166666666666643  0.0000288091632683   F   F   F
  0.0625000000000000  0.5416666666666643  0.0000288091632683   F   F   F
  0.1875000000000000  0.5416666666666643  0.0000288091632683   F   F   F
  0.3125000000000000  0.5416666666666643  0.0000288091632683   F   F   F
  0.4375000000000000  0.5416666666666643  0.0000288091632683   F   F   F
  0.5625000000000000  0.5416666666666643  0.0000288091632683   F   F   F
  0.6875000000000000  0.5416666666666643  0.0000288091632683   F   F   F
  0.8125000000000000  0.5416666666666643  0.0000288091632683   F   F   F
  0.9375000000000000  0.5416666666666643  0.0000288091632683   F   F   F
  0.0000000000000000  0.6666666666666643  0.0000288091632683   F   F   F
  0.1250000000000000  0.6666666666666643  0.0000288091632683   F   F   F
  0.2500000000000000  0.6666666666666643  0.0000288091632683   F   F   F
  0.3750000000000000  0.6666666666666643  0.0000288091632683   F   F   F
  0.5000000000000000  0.6666666666666643  0.0000288091632683   F   F   F
  0.6250000000000000  0.6666666666666643  0.0000288091632683   F   F   F
  0.7500000000000000  0.6666666666666643  0.0000288091632683   F   F   F
  0.8750000000000000  0.6666666666666643  0.0000288091632683   F   F   F
  0.0625000000000000  0.7916666666666643  0.0000288091632683   F   F   F
  0.1875000000000000  0.7916666666666643  0.0000288091632683   F   F   F
  0.3125000000000000  0.7916666666666643  0.0000288091632683   F   F   F
  0.4375000000000000  0.7916666666666643  0.0000288091632683   F   F   F
  0.5625000000000000  0.7916666666666643  0.0000288091632683   F   F   F
  0.6875000000000000  0.7916666666666643  0.0000288091632683   F   F   F
  0.8125000000000000  0.7916666666666643  0.0000288091632683   F   F   F
  0.9375000000000000  0.7916666666666643  0.0000288091632683   F   F   F
  0.0000000000000000  0.9166666666666643  0.0000288091632683   F   F   F
  0.1250000000000000  0.9166666666666643  0.0000288091632683   F   F   F
  0.2500000000000000  0.9166666666666643  0.0000288091632683   F   F   F
  0.3750000000000000  0.9166666666666643  0.0000288091632683   F   F   F
  0.5000000000000000  0.9166666666666643  0.0000288091632683   F   F   F
  0.6250000000000000  0.9166666666666643  0.0000288091632683   F   F   F
  0.7500000000000000  0.9166666666666643  0.0000288091632683   F   F   F
  0.8750000000000000  0.9166666666666643  0.0000288091632683   F   F   F
  0.0000000000000000  0.0833333333333357  0.0678913600957927   F   F   F
  0.1250000000000000  0.0833333333333357  0.0678913600957927   F   F   F
  0.2500000000000000  0.0833333333333357  0.0678913600957927   F   F   F
  0.3750000000000000  0.0833333333333357  0.0678913600957927   F   F   F
  0.5000000000000000  0.0833333333333357  0.0678913600957927   F   F   F
  0.6250000000000000  0.0833333333333357  0.0678913600957927   F   F   F
  0.7500000000000000  0.0833333333333357  0.0678913600957927   F   F   F
  0.8750000000000000  0.0833333333333357  0.0678913600957927   F   F   F
  0.0625000000000000  0.2083333333333357  0.0678913600957927   F   F   F
  0.1875000000000000  0.2083333333333357  0.0678913600957927   F   F   F
  0.3125000000000000  0.2083333333333357  0.0678913600957927   F   F   F
  0.4375000000000000  0.2083333333333357  0.0678913600957927   F   F   F
  0.5625000000000000  0.2083333333333357  0.0678913600957927   F   F   F
  0.6875000000000000  0.2083333333333357  0.0678913600957927   F   F   F
  0.8125000000000000  0.2083333333333357  0.0678913600957927   F   F   F
  0.9375000000000000  0.2083333333333357  0.0678913600957927   F   F   F
  0.0000000000000000  0.3333333333333357  0.0678913600957927   F   F   F
  0.1250000000000000  0.3333333333333357  0.0678913600957927   F   F   F
  0.2500000000000000  0.3333333333333357  0.0678913600957927   F   F   F
  0.3750000000000000  0.3333333333333357  0.0678913600957927   F   F   F
  0.5000000000000000  0.3333333333333357  0.0678913600957927   F   F   F
  0.6250000000000000  0.3333333333333357  0.0678913600957927   F   F   F
  0.7500000000000000  0.3333333333333357  0.0678913600957927   F   F   F
  0.8750000000000000  0.3333333333333357  0.0678913600957927   F   F   F
  0.0625000000000000  0.4583333333333357  0.0678913600957927   F   F   F
  0.1875000000000000  0.4583333333333357  0.0678913600957927   F   F   F
  0.3125000000000000  0.4583333333333357  0.0678913600957927   F   F   F
  0.4375000000000000  0.4583333333333357  0.0678913600957927   F   F   F
  0.5625000000000000  0.4583333333333357  0.0678913600957927   F   F   F
  0.6875000000000000  0.4583333333333357  0.0678913600957927   F   F   F
  0.8125000000000000  0.4583333333333357  0.0678913600957927   F   F   F
  0.9375000000000000  0.4583333333333357  0.0678913600957927   F   F   F
  0.0000000000000000  0.5833333333333357  0.0678913600957927   F   F   F
  0.1250000000000000  0.5833333333333357  0.0678913600957927   F   F   F
  0.2500000000000000  0.5833333333333357  0.0678913600957927   F   F   F
  0.3750000000000000  0.5833333333333357  0.0678913600957927   F   F   F
  0.5000000000000000  0.5833333333333357  0.0678913600957927   F   F   F
  0.6250000000000000  0.5833333333333357  0.0678913600957927   F   F   F
  0.7500000000000000  0.5833333333333357  0.0678913600957927   F   F   F
  0.8750000000000000  0.5833333333333357  0.0678913600957927   F   F   F
  0.0625000000000000  0.7083333333333357  0.0678913600957927   F   F   F
  0.1875000000000000  0.7083333333333357  0.0678913600957927   F   F   F
  0.3125000000000000  0.7083333333333357  0.0678913600957927   F   F   F
  0.4375000000000000  0.7083333333333357  0.0678913600957927   F   F   F
  0.5625000000000000  0.7083333333333357  0.0678913600957927   F   F   F
  0.6875000000000000  0.7083333333333357  0.0678913600957927   F   F   F
  0.8125000000000000  0.7083333333333357  0.0678913600957927   F   F   F
  0.9375000000000000  0.7083333333333357  0.0678913600957927   F   F   F
  0.0000000000000000  0.8333333333333357  0.0678913600957927   F   F   F
  0.1250000000000000  0.8333333333333357  0.0678913600957927   F   F   F
  0.2500000000000000  0.8333333333333357  0.0678913600957927   F   F   F
  0.3750000000000000  0.8333333333333357  0.0678913600957927   F   F   F
  0.5000000000000000  0.8333333333333357  0.0678913600957927   F   F   F
  0.6250000000000000  0.8333333333333357  0.0678913600957927   F   F   F
  0.7500000000000000  0.8333333333333357  0.0678913600957927   F   F   F
  0.8750000000000000  0.8333333333333357  0.0678913600957927   F   F   F
  0.0625000000000000  0.9583333333333357  0.0678913600957927   F   F   F
  0.1875000000000000  0.9583333333333357  0.0678913600957927   F   F   F
  0.3125000000000000  0.9583333333333357  0.0678913600957927   F   F   F
  0.4375000000000000  0.9583333333333357  0.0678913600957927   F   F   F
  0.5625000000000000  0.9583333333333357  0.0678913600957927   F   F   F
  0.6875000000000000  0.9583333333333357  0.0678913600957927   F   F   F
  0.8125000000000000  0.9583333333333357  0.0678913600957927   F   F   F
  0.9375000000000000  0.9583333333333357  0.0678913600957927   F   F   F
  0.0000002261544180  0.0001754152084291  0.1386184324445009   T   T   T
  0.1250002221265536  0.0001753017936087  0.1386184553122368   T   T   T
  0.2500000612523850  0.0001754381540071  0.1386182679488889   T   T   T
  0.3749998317274446  0.0001752499760411  0.1386183815210345   T   T   T
  0.4999997710381092  0.0001753716229727  0.1386183450768520   T   T   T
  0.6249998287502821  0.0001753925503419  0.1386184668115450   T   T   T
  0.7500000444676900  0.0001754423424805  0.1386184834631737   T   T   T
  0.8750001405477520  0.0001753011880677  0.1386185911067004   T   T   T
  0.0625002375589345  0.1251748357077557  0.1386662143908502   T   T   T
  0.1875001538296722  0.1251748918583948  0.1386661548621737   T   T   T
  0.3124998753895316  0.1251749198267398  0.1386661067055486   T   T   T
  0.4374997685754791  0.1251750711119057  0.1386649124822006   T   T   T
  0.5624998114888987  0.1251751738278826  0.1386649061130610   T   T   T
  0.6874998603445390  0.1251751923137328  0.1386649805356447   T   T   T
  0.8124999899016448  0.1251749993355691  0.1386656355565810   T   T   T
  0.9375002027121615  0.1251750896095608  0.1386650039830449   T   T   T
  0.0000002691542070  0.2501760444098009  0.1386190441444662   T   T   T
  0.1250001954919662  0.2501759318010965  0.1386188680056751   T   T   T
  0.2499999921075420  0.2501761281625132  0.1386188308310576   T   T   T
  0.3749998121572612  0.2501760420353594  0.1386188813048478   T   T   T
  0.4999997152987407  0.2501761468986323  0.1386190045697181   T   T   T
  0.6249998189397661  0.2501761655115769  0.1386190779991265   T   T   T
  0.7499999385973491  0.2501761666984158  0.1386190687272595   T   T   T
  0.8750001643412367  0.2501761121579668  0.1386190711806563   T   T   T
  0.0625002917321769  0.3751761781114091  0.1386650501161795   T   T   T
  0.1875000774449139  0.3751759082924471  0.1386662354313414   T   T   T
  0.3124998762432524  0.3751759379538959  0.1386662681553361   T   T   T
  0.4374997988015133  0.3751760879956932  0.1386656721225960   T   T   T
  0.5624997929444837  0.3751761829765040  0.1386651363938175   T   T   T
  0.6874998367487559  0.3751761973435745  0.1386651285622308   T   T   T
  0.8125000546345894  0.3751762415140369  0.1386651504025673   T   T   T
  0.9375002138267550  0.3751762260055475  0.1386650533918964   T   T   T
  0.0000002690305710  0.5001771482517946  0.1386185722204808   T   T   T
  0.1250002611519546  0.5001769686419755  0.1386185212835224   T   T   T
  0.2500000335505700  0.5001770645058337  0.1386183607286747   T   T   T
  0.3749997682380443  0.5001770087045214  0.1386185443177105   T   T   T
  0.4999997086267427  0.5001770998983178  0.1386185550561309   T   T   T
  0.6249997685887794  0.5001770950170972  0.1386186904898785   T   T   T
  0.7499999442174315  0.5001771763346239  0.1386186957160670   T   T   T
  0.8750001464917706  0.5001771075089909  0.1386187668159366   T   T   T
  0.0625002211506923  0.6251760567973771  0.1386658595026878   T   T   T
  0.1875001501433952  0.6251760856886965  0.1386657872941238   T   T   T
  0.3124998848749707  0.6251761443661492  0.1386657609469252   T   T   T
  0.4374997933729130  0.6251760558349237  0.1386659558957397   T   T   T
  0.5624997487891832  0.6251761264473149  0.1386658603361568   T   T   T
  0.6874998784233546  0.6251761836181311  0.1386660681457557   T   T   T
  0.8125000736852278  0.6251761193133578  0.1386660488291616   T   T   T
  0.9375002724016051  0.6251761049390629  0.1386661017444052   T   T   T
  0.0000002036651341  0.7501761460734253  0.1386183983739289   T   T   T
  0.1250002340157180  0.7501761422155581  0.1386182706751767   T   T   T
  0.2499999777520579  0.7501762497659097  0.1386181921033302   T   T   T
  0.3749998513595849  0.7501761545759165  0.1386182747265009   T   T   T
  0.4999997022886674  0.7501761844934183  0.1386183820773692   T   T   T
  0.6249998053986989  0.7501762483216735  0.1386184028847804   T   T   T
  0.7499998817118934  0.7501762084295888  0.1386184380293791   T   T   T
  0.8750001763400193  0.7501761682780645  0.1386184391681478   T   T   T
  0.0625002428620848  0.8751748344635415  0.1386658160482631   T   T   T
  0.1875000844593951  0.8751749685777706  0.1386657176527730   T   T   T
  0.3124999236819149  0.8751748189981849  0.1386656725829412   T   T   T
  0.4374997708142516  0.8751748476288240  0.1386658092104903   T   T   T
  0.5624998343172034  0.8751749286747430  0.1386659509430443   T   T   T
  0.6874998148257301  0.8751749845266201  0.1386659803358782   T   T   T
  0.8125000314459669  0.8751748645273051  0.1386659699043468   T   T   T
  0.9375001780910247  0.8751749019737385  0.1386658874392093   T   T   T
 
  0.00000000E+00  0.00000000E+00  0.00000000E+00
  0.00000000E+00  0.00000000E+00  0.00000000E+00
  0.00000000E+00  0.00000000E+00  0.00000000E+00
  0.00000000E+00  0.00000000E+00  0.00000000E+00
  0.00000000E+00  0.00000000E+00  0.00000000E+00
  0.00000000E+00  0.00000000E+00  0.00000000E+00
  0.00000000E+00  0.00000000E+00  0.00000000E+00
  0.00000000E+00  0.00000000E+00  0.00000000E+00
  0.00000000E+00  0.00000000E+00  0.00000000E+00
  0.00000000E+00  0.00000000E+00  0.00000000E+00
  0.00000000E+00  0.00000000E+00  0.00000000E+00
  0.00000000E+00  0.00000000E+00  0.00000000E+00
  0.00000000E+00  0.00000000E+00  0.00000000E+00
  0.00000000E+00  0.00000000E+00  0.00000000E+00
  0.00000000E+00  0.00000000E+00  0.00000000E+00
  0.00000000E+00  0.00000000E+00  0.00000000E+00
  0.00000000E+00  0.00000000E+00  0.00000000E+00
  0.00000000E+00  0.00000000E+00  0.00000000E+00
  0.00000000E+00  0.00000000E+00  0.00000000E+00
  0.00000000E+00  0.00000000E+00  0.00000000E+00
  0.00000000E+00  0.00000000E+00  0.00000000E+00
  0.00000000E+00  0.00000000E+00  0.00000000E+00
  0.00000000E+00  0.00000000E+00  0.00000000E+00
  0.00000000E+00  0.00000000E+00  0.00000000E+00
  0.00000000E+00  0.00000000E+00  0.00000000E+00
  0.00000000E+00  0.00000000E+00  0.00000000E+00
  0.00000000E+00  0.00000000E+00  0.00000000E+00
  0.00000000E+00  0.00000000E+00  0.00000000E+00
  0.00000000E+00  0.00000000E+00  0.00000000E+00
  0.00000000E+00  0.00000000E+00  0.00000000E+00
  0.00000000E+00  0.00000000E+00  0.00000000E+00
  0.00000000E+00  0.00000000E+00  0.00000000E+00
  0.00000000E+00  0.00000000E+00  0.00000000E+00
  0.00000000E+00  0.00000000E+00  0.00000000E+00
  0.00000000E+00  0.00000000E+00  0.00000000E+00
  0.00000000E+00  0.00000000E+00  0.00000000E+00
  0.00000000E+00  0.00000000E+00  0.00000000E+00
  0.00000000E+00  0.00000000E+00  0.00000000E+00
  0.00000000E+00  0.00000000E+00  0.00000000E+00
  0.00000000E+00  0.00000000E+00  0.00000000E+00
  0.00000000E+00  0.00000000E+00  0.00000000E+00
  0.00000000E+00  0.00000000E+00  0.00000000E+00
  0.00000000E+00  0.00000000E+00  0.00000000E+00
  0.00000000E+00  0.00000000E+00  0.00000000E+00
  0.00000000E+00  0.00000000E+00  0.00000000E+00
  0.00000000E+00  0.00000000E+00  0.00000000E+00
  0.00000000E+00  0.00000000E+00  0.00000000E+00
  0.00000000E+00  0.00000000E+00  0.00000000E+00
  0.00000000E+00  0.00000000E+00  0.00000000E+00
  0.00000000E+00  0.00000000E+00  0.00000000E+00
  0.00000000E+00  0.00000000E+00  0.00000000E+00
  0.00000000E+00  0.00000000E+00  0.00000000E+00
  0.00000000E+00  0.00000000E+00  0.00000000E+00
  0.00000000E+00  0.00000000E+00  0.00000000E+00
  0.00000000E+00  0.00000000E+00  0.00000000E+00
  0.00000000E+00  0.00000000E+00  0.00000000E+00
  0.00000000E+00  0.00000000E+00  0.00000000E+00
  0.00000000E+00  0.00000000E+00  0.00000000E+00
  0.00000000E+00  0.00000000E+00  0.00000000E+00
  0.00000000E+00  0.00000000E+00  0.00000000E+00
  0.00000000E+00  0.00000000E+00  0.00000000E+00
  0.00000000E+00  0.00000000E+00  0.00000000E+00
  0.00000000E+00  0.00000000E+00  0.00000000E+00
  0.00000000E+00  0.00000000E+00  0.00000000E+00
  0.00000000E+00  0.00000000E+00  0.00000000E+00
  0.00000000E+00  0.00000000E+00  0.00000000E+00
  0.00000000E+00  0.00000000E+00  0.00000000E+00
  0.00000000E+00  0.00000000E+00  0.00000000E+00
  0.00000000E+00  0.00000000E+00  0.00000000E+00
  0.00000000E+00  0.00000000E+00  0.00000000E+00
  0.00000000E+00  0.00000000E+00  0.00000000E+00
  0.00000000E+00  0.00000000E+00  0.00000000E+00
  0.00000000E+00  0.00000000E+00  0.00000000E+00
  0.00000000E+00  0.00000000E+00  0.00000000E+00
  0.00000000E+00  0.00000000E+00  0.00000000E+00
  0.00000000E+00  0.00000000E+00  0.00000000E+00
  0.00000000E+00  0.00000000E+00  0.00000000E+00
  0.00000000E+00  0.00000000E+00  0.00000000E+00
  0.00000000E+00  0.00000000E+00  0.00000000E+00
  0.00000000E+00  0.00000000E+00  0.00000000E+00
  0.00000000E+00  0.00000000E+00  0.00000000E+00
  0.00000000E+00  0.00000000E+00  0.00000000E+00
  0.00000000E+00  0.00000000E+00  0.00000000E+00
  0.00000000E+00  0.00000000E+00  0.00000000E+00
  0.00000000E+00  0.00000000E+00  0.00000000E+00
  0.00000000E+00  0.00000000E+00  0.00000000E+00
  0.00000000E+00  0.00000000E+00  0.00000000E+00
  0.00000000E+00  0.00000000E+00  0.00000000E+00
  0.00000000E+00  0.00000000E+00  0.00000000E+00
  0.00000000E+00  0.00000000E+00  0.00000000E+00
  0.00000000E+00  0.00000000E+00  0.00000000E+00
  0.00000000E+00  0.00000000E+00  0.00000000E+00
  0.00000000E+00  0.00000000E+00  0.00000000E+00
  0.00000000E+00  0.00000000E+00  0.00000000E+00
  0.00000000E+00  0.00000000E+00  0.00000000E+00
  0.00000000E+00  0.00000000E+00  0.00000000E+00
  0.00000000E+00  0.00000000E+00  0.00000000E+00
  0.00000000E+00  0.00000000E+00  0.00000000E+00
  0.00000000E+00  0.00000000E+00  0.00000000E+00
  0.00000000E+00  0.00000000E+00  0.00000000E+00
  0.00000000E+00  0.00000000E+00  0.00000000E+00
  0.00000000E+00  0.00000000E+00  0.00000000E+00
  0.00000000E+00  0.00000000E+00  0.00000000E+00
  0.00000000E+00  0.00000000E+00  0.00000000E+00
  0.00000000E+00  0.00000000E+00  0.00000000E+00
  0.00000000E+00  0.00000000E+00  0.00000000E+00
  0.00000000E+00  0.00000000E+00  0.00000000E+00
  0.00000000E+00  0.00000000E+00  0.00000000E+00
  0.00000000E+00  0.00000000E+00  0.00000000E+00
  0.00000000E+00  0.00000000E+00  0.00000000E+00
  0.00000000E+00  0.00000000E+00  0.00000000E+00
  0.00000000E+00  0.00000000E+00  0.00000000E+00
  0.00000000E+00  0.00000000E+00  0.00000000E+00
  0.00000000E+00  0.00000000E+00  0.00000000E+00
  0.00000000E+00  0.00000000E+00  0.00000000E+00
  0.00000000E+00  0.00000000E+00  0.00000000E+00
  0.00000000E+00  0.00000000E+00  0.00000000E+00
  0.00000000E+00  0.00000000E+00  0.00000000E+00
  0.00000000E+00  0.00000000E+00  0.00000000E+00
  0.00000000E+00  0.00000000E+00  0.00000000E+00
  0.00000000E+00  0.00000000E+00  0.00000000E+00
  0.00000000E+00  0.00000000E+00  0.00000000E+00
  0.00000000E+00  0.00000000E+00  0.00000000E+00
  0.00000000E+00  0.00000000E+00  0.00000000E+00
  0.00000000E+00  0.00000000E+00  0.00000000E+00
  0.00000000E+00  0.00000000E+00  0.00000000E+00
  0.00000000E+00  0.00000000E+00  0.00000000E+00
  0.00000000E+00  0.00000000E+00  0.00000000E+00
  0.00000000E+00  0.00000000E+00  0.00000000E+00
  0.00000000E+00  0.00000000E+00  0.00000000E+00
  0.00000000E+00  0.00000000E+00  0.00000000E+00
  0.00000000E+00  0.00000000E+00  0.00000000E+00
  0.00000000E+00  0.00000000E+00  0.00000000E+00
  0.00000000E+00  0.00000000E+00  0.00000000E+00
  0.00000000E+00  0.00000000E+00  0.00000000E+00
  0.00000000E+00  0.00000000E+00  0.00000000E+00
  0.00000000E+00  0.00000000E+00  0.00000000E+00
  0.00000000E+00  0.00000000E+00  0.00000000E+00
  0.00000000E+00  0.00000000E+00  0.00000000E+00
  0.00000000E+00  0.00000000E+00  0.00000000E+00
  0.00000000E+00  0.00000000E+00  0.00000000E+00
  0.00000000E+00  0.00000000E+00  0.00000000E+00
  0.00000000E+00  0.00000000E+00  0.00000000E+00
  0.00000000E+00  0.00000000E+00  0.00000000E+00
  0.00000000E+00  0.00000000E+00  0.00000000E+00
  0.00000000E+00  0.00000000E+00  0.00000000E+00
  0.00000000E+00  0.00000000E+00  0.00000000E+00
  0.00000000E+00  0.00000000E+00  0.00000000E+00
  0.00000000E+00  0.00000000E+00  0.00000000E+00
  0.00000000E+00  0.00000000E+00  0.00000000E+00
  0.00000000E+00  0.00000000E+00  0.00000000E+00
  0.00000000E+00  0.00000000E+00  0.00000000E+00
  0.00000000E+00  0.00000000E+00  0.00000000E+00
  0.00000000E+00  0.00000000E+00  0.00000000E+00
  0.00000000E+00  0.00000000E+00  0.00000000E+00
  0.00000000E+00  0.00000000E+00  0.00000000E+00
  0.00000000E+00  0.00000000E+00  0.00000000E+00
  0.00000000E+00  0.00000000E+00  0.00000000E+00
  0.00000000E+00  0.00000000E+00  0.00000000E+00
  0.00000000E+00  0.00000000E+00  0.00000000E+00
  0.00000000E+00  0.00000000E+00  0.00000000E+00
  0.00000000E+00  0.00000000E+00  0.00000000E+00
  0.00000000E+00  0.00000000E+00  0.00000000E+00
  0.00000000E+00  0.00000000E+00  0.00000000E+00
  0.00000000E+00  0.00000000E+00  0.00000000E+00
  0.00000000E+00  0.00000000E+00  0.00000000E+00
  0.00000000E+00  0.00000000E+00  0.00000000E+00
  0.00000000E+00  0.00000000E+00  0.00000000E+00
  0.00000000E+00  0.00000000E+00  0.00000000E+00
  0.00000000E+00  0.00000000E+00  0.00000000E+00
  0.00000000E+00  0.00000000E+00  0.00000000E+00
  0.00000000E+00  0.00000000E+00  0.00000000E+00
  0.00000000E+00  0.00000000E+00  0.00000000E+00
  0.00000000E+00  0.00000000E+00  0.00000000E+00
  0.00000000E+00  0.00000000E+00  0.00000000E+00
  0.00000000E+00  0.00000000E+00  0.00000000E+00
  0.00000000E+00  0.00000000E+00  0.00000000E+00
  0.00000000E+00  0.00000000E+00  0.00000000E+00
  0.00000000E+00  0.00000000E+00  0.00000000E+00
  0.00000000E+00  0.00000000E+00  0.00000000E+00
  0.00000000E+00  0.00000000E+00  0.00000000E+00
  0.00000000E+00  0.00000000E+00  0.00000000E+00
  0.00000000E+00  0.00000000E+00  0.00000000E+00
  0.00000000E+00  0.00000000E+00  0.00000000E+00
  0.00000000E+00  0.00000000E+00  0.00000000E+00
  0.00000000E+00  0.00000000E+00  0.00000000E+00
  0.00000000E+00  0.00000000E+00  0.00000000E+00
  0.00000000E+00  0.00000000E+00  0.00000000E+00
  0.00000000E+00  0.00000000E+00  0.00000000E+00
  0.00000000E+00  0.00000000E+00  0.00000000E+00
  0.00000000E+00  0.00000000E+00  0.00000000E+00
  0.00000000E+00  0.00000000E+00  0.00000000E+00
