#===============================================================================
# Created using the Atomic Simulation Environment (ASE)

# Wed Jan 14 14:39:03 2026

#=======================================================
lattice_vector 23.0799653400000011 0.0000000000000000 0.0000000000000000 
lattice_vector 12.9824804999999994 22.4863158399999996 0.0000000000000000 
lattice_vector 0.0000000000000000 0.0000000000000000 40.7111781999999991 
atom 1.4424999999999999 0.8328270000000000 0.0000000000000000 Au
atom 4.3274900000000001 0.8328270000000000 0.0000000000000000 Au
atom 7.2124899999999998 0.8328270000000000 0.0000000000000000 Au
atom 10.0975000000000001 0.8328270000000000 0.0000000000000000 Au
atom 12.9824999999999999 0.8328270000000000 0.0000000000000000 Au
atom 15.8674999999999997 0.8328270000000000 0.0000000000000000 Au
atom 18.7525000000000013 0.8328270000000000 0.0000000000000000 Au
atom 21.6374999999999993 0.8328270000000000 0.0000000000000000 Au
atom 2.8849999999999998 3.3313100000000002 0.0000000000000000 Au
atom 5.7699900000000000 3.3313100000000002 0.0000000000000000 Au
atom 8.6549899999999997 3.3313100000000002 0.0000000000000000 Au
atom 11.5399999999999991 3.3313100000000002 0.0000000000000000 Au
atom 14.4250000000000007 3.3313100000000002 0.0000000000000000 Au
atom 17.3099999999999987 3.3313100000000002 0.0000000000000000 Au
atom 20.1950000000000003 3.3313100000000002 0.0000000000000000 Au
atom 23.0799999999999983 3.3313100000000002 0.0000000000000000 Au
atom 4.3274900000000001 5.8297900000000000 0.0000000000000000 Au
atom 7.2124899999999998 5.8297900000000000 0.0000000000000000 Au
atom 10.0975000000000001 5.8297900000000000 0.0000000000000000 Au
atom 12.9824999999999999 5.8297900000000000 0.0000000000000000 Au
atom 15.8674999999999997 5.8297900000000000 0.0000000000000000 Au
atom 18.7525000000000013 5.8297900000000000 0.0000000000000000 Au
atom 21.6374999999999993 5.8297900000000000 0.0000000000000000 Au
atom 24.5225000000000009 5.8297900000000000 0.0000000000000000 Au
atom 5.7699900000000000 8.3282699999999998 0.0000000000000000 Au
atom 8.6549899999999997 8.3282699999999998 0.0000000000000000 Au
atom 11.5399999999999991 8.3282699999999998 0.0000000000000000 Au
atom 14.4250000000000007 8.3282699999999998 0.0000000000000000 Au
atom 17.3099999999999987 8.3282699999999998 0.0000000000000000 Au
atom 20.1950000000000003 8.3282699999999998 0.0000000000000000 Au
atom 23.0799999999999983 8.3282699999999998 0.0000000000000000 Au
atom 25.9649999999999999 8.3282699999999998 0.0000000000000000 Au
atom 7.2124899999999998 10.8267000000000007 0.0000000000000000 Au
atom 10.0975000000000001 10.8267000000000007 0.0000000000000000 Au
atom 12.9824999999999999 10.8267000000000007 0.0000000000000000 Au
atom 15.8674999999999997 10.8267000000000007 0.0000000000000000 Au
atom 18.7525000000000013 10.8267000000000007 0.0000000000000000 Au
atom 21.6374999999999993 10.8267000000000007 0.0000000000000000 Au
atom 24.5225000000000009 10.8267000000000007 0.0000000000000000 Au
atom 27.4074999999999989 10.8267000000000007 0.0000000000000000 Au
atom 8.6549899999999997 13.3252000000000006 0.0000000000000000 Au
atom 11.5399999999999991 13.3252000000000006 0.0000000000000000 Au
atom 14.4250000000000007 13.3252000000000006 0.0000000000000000 Au
atom 17.3099999999999987 13.3252000000000006 0.0000000000000000 Au
atom 20.1950000000000003 13.3252000000000006 0.0000000000000000 Au
atom 23.0799999999999983 13.3252000000000006 0.0000000000000000 Au
atom 25.9649999999999999 13.3252000000000006 0.0000000000000000 Au
atom 28.8500000000000014 13.3252000000000006 0.0000000000000000 Au
atom 10.0975000000000001 15.8237000000000005 0.0000000000000000 Au
atom 12.9824999999999999 15.8237000000000005 0.0000000000000000 Au
atom 15.8674999999999997 15.8237000000000005 0.0000000000000000 Au
atom 18.7525000000000013 15.8237000000000005 0.0000000000000000 Au
atom 21.6374999999999993 15.8237000000000005 0.0000000000000000 Au
atom 24.5225000000000009 15.8237000000000005 0.0000000000000000 Au
atom 27.4074999999999989 15.8237000000000005 0.0000000000000000 Au
atom 30.2925000000000004 15.8237000000000005 0.0000000000000000 Au
atom 11.5399999999999991 18.3221999999999987 0.0000000000000000 Au
atom 14.4250000000000007 18.3221999999999987 0.0000000000000000 Au
atom 17.3099999999999987 18.3221999999999987 0.0000000000000000 Au
atom 20.1950000000000003 18.3221999999999987 0.0000000000000000 Au
atom 23.0799999999999983 18.3221999999999987 0.0000000000000000 Au
atom 25.9649999999999999 18.3221999999999987 0.0000000000000000 Au
atom 28.8500000000000014 18.3221999999999987 0.0000000000000000 Au
atom 31.7349999999999994 18.3221999999999987 0.0000000000000000 Au
atom 12.9824999999999999 20.8206999999999987 0.0000000000000000 Au
atom 15.8674999999999997 20.8206999999999987 0.0000000000000000 Au
atom 18.7525000000000013 20.8206999999999987 0.0000000000000000 Au
atom 21.6374999999999993 20.8206999999999987 0.0000000000000000 Au
atom 24.5225000000000009 20.8206999999999987 0.0000000000000000 Au
atom 27.4074999999999989 20.8206999999999987 0.0000000000000000 Au
atom 30.2925000000000004 20.8206999999999987 0.0000000000000000 Au
atom 33.1775000000000020 20.8206999999999987 0.0000000000000000 Au
atom 23.0799999999999983 1.6656500000000001 2.3555899999999999 Au
atom 2.8849999999999998 1.6656500000000001 2.3555899999999999 Au
atom 5.7699900000000000 1.6656500000000001 2.3555899999999999 Au
atom 8.6549899999999997 1.6656500000000001 2.3555899999999999 Au
atom 11.5399999999999991 1.6656500000000001 2.3555899999999999 Au
atom 14.4250000000000007 1.6656500000000001 2.3555899999999999 Au
atom 17.3099999999999987 1.6656500000000001 2.3555899999999999 Au
atom 20.1950000000000003 1.6656500000000001 2.3555899999999999 Au
atom 24.5225000000000009 4.1641300000000001 2.3555899999999999 Au
atom 4.3274900000000001 4.1641300000000001 2.3555899999999999 Au
atom 7.2124899999999998 4.1641300000000001 2.3555899999999999 Au
atom 10.0975000000000001 4.1641300000000001 2.3555899999999999 Au
atom 12.9824999999999999 4.1641300000000001 2.3555899999999999 Au
atom 15.8674999999999997 4.1641300000000001 2.3555899999999999 Au
atom 18.7525000000000013 4.1641300000000001 2.3555899999999999 Au
atom 21.6374999999999993 4.1641300000000001 2.3555899999999999 Au
atom 25.9649999999999999 6.6626099999999999 2.3555899999999999 Au
atom 5.7699900000000000 6.6626099999999999 2.3555899999999999 Au
atom 8.6549899999999997 6.6626099999999999 2.3555899999999999 Au
atom 11.5399999999999991 6.6626099999999999 2.3555899999999999 Au
atom 14.4250000000000007 6.6626099999999999 2.3555899999999999 Au
atom 17.3099999999999987 6.6626099999999999 2.3555899999999999 Au
atom 20.1950000000000003 6.6626099999999999 2.3555899999999999 Au
atom 23.0799999999999983 6.6626099999999999 2.3555899999999999 Au
atom 27.4074999999999989 9.1610899999999997 2.3555899999999999 Au
atom 7.2124899999999998 9.1610899999999997 2.3555899999999999 Au
atom 10.0975000000000001 9.1610899999999997 2.3555899999999999 Au
atom 12.9824999999999999 9.1610899999999997 2.3555899999999999 Au
atom 15.8674999999999997 9.1610899999999997 2.3555899999999999 Au
atom 18.7525000000000013 9.1610899999999997 2.3555899999999999 Au
atom 21.6374999999999993 9.1610899999999997 2.3555899999999999 Au
atom 24.5225000000000009 9.1610899999999997 2.3555899999999999 Au
atom 28.8500000000000014 11.6595999999999993 2.3555899999999999 Au
atom 8.6549899999999997 11.6595999999999993 2.3555899999999999 Au
atom 11.5399999999999991 11.6595999999999993 2.3555899999999999 Au
atom 14.4250000000000007 11.6595999999999993 2.3555899999999999 Au
atom 17.3099999999999987 11.6595999999999993 2.3555899999999999 Au
atom 20.1950000000000003 11.6595999999999993 2.3555899999999999 Au
atom 23.0799999999999983 11.6595999999999993 2.3555899999999999 Au
atom 25.9649999999999999 11.6595999999999993 2.3555899999999999 Au
atom 30.2925000000000004 14.1580999999999992 2.3555899999999999 Au
atom 10.0975000000000001 14.1580999999999992 2.3555899999999999 Au
atom 12.9824999999999999 14.1580999999999992 2.3555899999999999 Au
atom 15.8674999999999997 14.1580999999999992 2.3555899999999999 Au
atom 18.7525000000000013 14.1580999999999992 2.3555899999999999 Au
atom 21.6374999999999993 14.1580999999999992 2.3555899999999999 Au
atom 24.5225000000000009 14.1580999999999992 2.3555899999999999 Au
atom 27.4074999999999989 14.1580999999999992 2.3555899999999999 Au
atom 31.7349999999999994 16.6565000000000012 2.3555899999999999 Au
atom 11.5399999999999991 16.6565000000000012 2.3555899999999999 Au
atom 14.4250000000000007 16.6565000000000012 2.3555899999999999 Au
atom 17.3099999999999987 16.6565000000000012 2.3555899999999999 Au
atom 20.1950000000000003 16.6565000000000012 2.3555899999999999 Au
atom 23.0799999999999983 16.6565000000000012 2.3555899999999999 Au
atom 25.9649999999999999 16.6565000000000012 2.3555899999999999 Au
atom 28.8500000000000014 16.6565000000000012 2.3555899999999999 Au
atom 33.1775000000000020 19.1550000000000011 2.3555899999999999 Au
atom 12.9824999999999999 19.1550000000000011 2.3555899999999999 Au
atom 15.8674999999999997 19.1550000000000011 2.3555899999999999 Au
atom 18.7525000000000013 19.1550000000000011 2.3555899999999999 Au
atom 21.6374999999999993 19.1550000000000011 2.3555899999999999 Au
atom 24.5225000000000009 19.1550000000000011 2.3555899999999999 Au
atom 27.4074999999999989 19.1550000000000011 2.3555899999999999 Au
atom 30.2925000000000004 19.1550000000000011 2.3555899999999999 Au
atom 34.6199000000000012 21.6535000000000011 2.3555899999999999 Au
atom 14.4250000000000007 21.6535000000000011 2.3555899999999999 Au
atom 17.3099999999999987 21.6535000000000011 2.3555899999999999 Au
atom 20.1950000000000003 21.6535000000000011 2.3555899999999999 Au
atom 23.0799999999999983 21.6535000000000011 2.3555899999999999 Au
atom 25.9649999999999999 21.6535000000000011 2.3555899999999999 Au
atom 28.8500000000000014 21.6535000000000011 2.3555899999999999 Au
atom 31.7349999999999994 21.6535000000000011 2.3555899999999999 Au
atom 13.0371000000000006 22.4937000000000005 4.7775100000000004 Au
atom 15.8826999999999998 22.4925999999999995 4.7804799999999998 Au
atom 5.7948300000000001 0.0202483000000000 4.7841800000000001 Au
atom 21.6274000000000015 22.4891000000000005 4.7753800000000002 Au
atom 11.5361999999999991 0.0126032000000000 4.7806600000000001 Au
atom 14.3978000000000002 0.0159048000000000 4.7752900000000000 Au
atom 30.3005999999999993 22.4674000000000014 4.7783199999999999 Au
atom 20.1950000000000003 0.0151321000000000 4.7737499999999997 Au
atom 24.4808999999999983 2.5003799999999998 4.7774400000000004 Au
atom 4.3384000000000000 2.4777499999999999 4.7803599999999999 Au
atom 7.1898999999999997 2.5023800000000000 4.7773199999999996 Au
atom 10.1272000000000002 2.5012400000000001 4.7738600000000000 Au
atom 12.9849999999999994 2.4622099999999998 4.7622099999999996 Au
atom 15.9024999999999999 2.4683899999999999 4.7438099999999999 Au
atom 18.7316000000000003 2.4463599999999999 4.7344299999999997 Au
atom 21.6428000000000011 2.4459300000000002 4.7688800000000002 Au
atom 2.9421599999999999 4.9992900000000002 4.7802400000000000 Au
atom 5.7739700000000003 5.0015000000000001 4.7772300000000003 Au
atom 8.6574899999999992 4.9988200000000003 4.7814699999999997 Au
atom 11.5204000000000004 4.9969599999999996 4.7255900000000004 Au
atom 14.4011999999999993 5.0498099999999999 4.7330300000000003 Au
atom 17.3173999999999992 5.0506300000000000 4.7271299999999998 Au
atom 20.2649000000000008 5.0199600000000002 4.7220800000000001 Au
atom 23.1325000000000003 5.0032899999999998 4.7541599999999997 Au
atom 27.3805000000000014 7.5270400000000004 4.7749499999999996 Au
atom 7.2239000000000004 7.4798499999999999 4.7761899999999997 Au
atom 10.0668000000000006 7.4878099999999996 4.7182399999999998 Au
atom 13.0480000000000000 7.5466499999999996 4.7617000000000003 Au
atom 15.8710000000000004 7.4263500000000002 4.7734199999999998 Au
atom 18.7679000000000009 7.4279099999999998 4.7770900000000003 Au
atom 21.5618000000000016 7.5165800000000003 4.7648799999999998 Au
atom 24.5138999999999996 7.4431000000000003 4.7565099999999996 Au
atom 5.8018200000000002 9.9882299999999997 4.7792000000000003 Au
atom 8.6239299999999997 10.0185999999999993 4.7537200000000004 Au
atom 11.5637000000000008 9.9987800000000000 4.7600600000000002 Au
atom 14.3630999999999993 10.0258000000000003 4.7614500000000000 Au
atom 17.3250999999999991 10.0390999999999995 4.6117499999999998 Au
atom 20.2466000000000008 9.9968800000000009 4.7683099999999996 Au
atom 23.1506000000000007 10.0305999999999997 4.7142600000000003 Au
atom 25.9895999999999994 9.9992199999999993 4.7773199999999996 Au
atom 30.2925000000000004 12.5228000000000002 4.7797400000000003 Au
atom 10.0891999999999999 12.5014000000000003 4.7380399999999998 Au
atom 13.0595999999999997 12.4817000000000000 4.7832499999999998 Au
atom 15.8439999999999994 12.5382999999999996 4.7930400000000004 Au
atom 18.8115999999999985 12.5160000000000000 4.7976999999999999 Au
atom 21.5790000000000006 12.4307999999999996 4.7633200000000002 Au
atom 24.5353999999999992 12.5434999999999999 4.7731199999999996 Au
atom 27.3812999999999995 12.4661000000000008 4.7701700000000002 Au
atom 8.6425400000000003 14.9818999999999996 4.7805799999999996 Au
atom 11.4939999999999998 15.0023000000000000 4.7463300000000004 Au
atom 14.4003999999999994 14.9884000000000004 4.7218200000000001 Au
atom 17.3354999999999997 14.8993000000000002 4.7613899999999996 Au
atom 20.1604999999999990 15.0622000000000007 4.7173400000000001 Au
atom 23.1426000000000016 14.9702000000000002 4.7545599999999997 Au
atom 25.9890000000000008 15.0202000000000009 4.7811700000000004 Au
atom 28.8713000000000015 14.9928000000000008 4.7837500000000004 Au
atom 10.1231000000000009 17.4979000000000013 4.7790100000000004 Au
atom 12.9664999999999999 17.5218999999999987 4.7583299999999999 Au
atom 15.9240999999999993 17.5254000000000012 4.7366400000000004 Au
atom 18.7328000000000010 17.5317000000000007 4.7491500000000002 Au
atom 21.6677000000000000 17.4993000000000016 4.7763499999999999 Au
atom 24.4849999999999994 17.5060000000000002 4.7729499999999998 Au
atom 27.4126000000000012 17.4922000000000004 4.7880900000000004 Au
atom 30.2592999999999996 17.5127999999999986 4.7746899999999997 Au
atom 34.5899000000000001 19.9759999999999991 4.7804900000000004 Au
atom 14.4139999999999997 19.9721000000000011 4.7789999999999999 Au
atom 17.2828000000000017 20.0199999999999996 4.7790699999999999 Au
atom 20.2265000000000015 19.9680000000000000 4.7746899999999997 Au
atom 23.0714000000000006 20.0158999999999985 4.7782999999999998 Au
atom 26.0112999999999985 19.9679000000000002 4.7767499999999998 Au
atom 28.8426000000000009 19.9834999999999994 4.7861200000000004 Au
atom 31.7512000000000008 19.9710000000000001 4.7861900000000004 Au
atom 20.8837000000000010 8.2901000000000007 8.4832099999999997 C
atom 20.9358000000000004 7.5383899999999997 9.8209900000000001 C
atom 21.9860000000000007 7.9635499999999997 10.8369999999999997 C
atom 21.7534999999999989 7.1975400000000000 12.1323000000000008 C
atom 21.7790999999999997 5.6921600000000003 11.8635999999999999 C
atom 20.8436999999999983 5.3524599999999998 10.6806999999999999 C
atom 21.1533000000000015 6.1412500000000003 9.5651299999999999 O
atom 19.5208000000000013 5.6060600000000003 11.1341000000000001 O
atom 18.5483000000000011 4.6290100000000001 10.8094999999999999 C
atom 17.5394000000000005 5.1974900000000002 9.8225300000000004 C
atom 16.5913000000000004 4.1488300000000002 9.5641900000000000 O
atom 15.7927000000000000 3.8873700000000002 10.6846999999999994 C
atom 16.6573999999999991 3.3599000000000001 11.8544000000000000 C
atom 17.8258000000000010 4.3133200000000000 12.1138999999999992 C
atom 18.7801000000000009 3.7604400000000000 13.0022000000000002 O
atom 15.9199999999999999 3.1463500000000000 13.0196000000000005 O
atom 15.1707999999999998 5.0763699999999998 11.1516000000000002 O
atom 13.7928999999999995 5.2295800000000003 10.8583999999999996 C
atom 13.5892999999999997 6.3511800000000003 9.8497000000000003 C
atom 12.1719000000000008 6.4662199999999999 9.6426300000000005 O
atom 11.5134000000000007 6.9505400000000002 10.7794000000000008 C
atom 11.6621000000000006 5.9562700000000000 11.9543999999999997 C
atom 13.1395999999999997 5.6292999999999997 12.1748999999999992 C
atom 13.3195999999999994 4.5545200000000001 13.0786999999999995 O
atom 11.0733999999999995 6.4103800000000000 13.1340000000000003 O
atom 12.0863999999999994 8.1779499999999992 11.2097999999999995 O
atom 11.3331999999999997 9.3493200000000005 10.9480000000000004 C
atom 12.0500000000000007 10.2143999999999995 9.9198500000000003 C
atom 11.2463999999999995 11.3922000000000008 9.7406199999999998 O
atom 11.2344000000000008 12.1998999999999995 10.8847000000000005 C
atom 10.5799000000000003 11.4536999999999995 12.0696999999999992 C
atom 11.2654999999999994 10.1020000000000003 12.2691999999999997 C
atom 10.5655999999999999 9.2835699999999992 13.1900999999999993 O
atom 10.5868000000000002 12.1925000000000008 13.2525999999999993 O
atom 12.5568000000000008 12.5205000000000002 11.2966999999999995 O
atom 12.9979999999999993 13.8366000000000007 11.0160000000000000 C
atom 14.1181999999999999 13.8033999999999999 9.9869900000000005 C
atom 14.5185999999999993 15.1670999999999996 9.7746999999999993 O
atom 15.1530000000000005 15.7041000000000004 10.9026999999999994 C
atom 14.1768000000000001 15.7591999999999999 12.1006999999999998 C
atom 13.5515000000000008 14.3816000000000006 12.3267000000000007 C
atom 12.4808000000000003 14.4282000000000004 13.2530000000000001 O
atom 14.7759999999999998 16.2310000000000016 13.2690000000000001 O
atom 16.2395999999999994 14.8850999999999996 11.3131000000000004 O
atom 17.5383999999999993 15.3562999999999992 11.0006000000000004 C
atom 18.1906999999999996 14.4525000000000006 9.9655500000000004 C
atom 19.5040000000000013 14.9842999999999993 9.7261199999999999 O
atom 20.3402999999999992 14.8231999999999999 10.8385999999999996 C
atom 19.7988000000000000 15.6262000000000008 12.0447000000000006 C
atom 18.3337000000000003 15.2658000000000005 12.2972999999999999 C
atom 17.7221000000000011 16.1380000000000017 13.2304999999999993 O
atom 20.5607000000000006 15.4501000000000008 13.2002000000000006 O
atom 20.3813999999999993 13.4634000000000000 11.2492000000000001 O
atom 21.5535999999999994 12.7385999999999999 10.9199999999999999 C
atom 21.2390000000000008 11.6736000000000004 9.8796800000000005 C
atom 22.4633000000000003 10.9634000000000000 9.6311900000000001 O
atom 22.8643000000000001 10.2070000000000007 10.7399000000000004 C
atom 21.8255000000000017 9.3331900000000001 11.1620000000000008 O
atom 23.1757999999999988 11.1294000000000004 11.9410000000000007 C
atom 21.9871000000000016 12.0532000000000004 12.2089999999999996 C
atom 22.3012000000000015 13.0698000000000008 13.1435999999999993 O
atom 23.5268000000000015 10.4254999999999995 13.0930000000000000 O
atom 20.6482999999999990 12.1288999999999998 8.5377600000000005 C
atom 19.5051999999999985 11.3553999999999995 8.2040100000000002 O
atom 17.4741000000000000 14.2560000000000002 8.6207899999999995 C
atom 17.3646999999999991 12.8731000000000009 8.3137899999999991 O
atom 13.8323000000000000 13.1393000000000004 8.6306899999999995 C
atom 14.8216999999999999 12.1618999999999993 8.3419799999999995 O
atom 12.3419000000000008 9.5962800000000001 8.5449099999999998 C
atom 13.7050000000000001 9.7775099999999995 8.1860499999999998 O
atom 14.2773000000000003 6.2323100000000000 8.4827700000000004 C
atom 14.9332999999999991 7.4472800000000001 8.1384399999999992 O
atom 18.0554999999999986 5.7537399999999996 8.4887700000000006 C
atom 17.5411999999999999 7.0579700000000001 8.2686600000000006 O
atom 21.4735000000000014 4.9754399999999999 13.0212000000000003 O
atom 22.7619000000000007 7.5924199999999997 13.0454000000000008 O
atom 19.5639000000000003 8.7341700000000007 8.2087500000000002 O
atom 21.5756000000000014 9.1424500000000002 8.5092199999999991 H
atom 21.2058000000000000 7.6215700000000002 7.6668900000000004 H
atom 19.9653999999999989 7.6887600000000003 10.3308999999999997 H
atom 22.9969999999999999 7.7457900000000004 10.4430999999999994 H
atom 20.7506999999999984 7.4658300000000004 12.5212000000000003 H
atom 22.8063000000000002 5.4214500000000001 11.5626999999999995 H
atom 21.0023000000000017 4.3042899999999999 10.3729999999999993 H
atom 19.0042000000000009 3.7101600000000001 10.3946000000000005 H
atom 17.0533000000000001 6.0305900000000001 10.3637999999999995 H
atom 15.0699000000000005 3.1107900000000002 10.3793000000000006 H
atom 17.0789000000000009 2.3885299999999998 11.5427000000000000 H
atom 17.4168999999999983 5.2592800000000004 12.5227000000000004 H
atom 18.3296999999999990 3.5590400000000000 13.8405000000000005 H
atom 15.1387000000000000 3.7455300000000000 13.0320999999999998 H
atom 13.3422999999999998 4.2944899999999997 10.4748999999999999 H
atom 13.9824999999999999 7.2579099999999999 10.3475999999999999 H
atom 10.4474999999999998 7.0411799999999998 10.5068000000000001 H
atom 11.1509000000000000 5.0222600000000002 11.6624999999999996 H
atom 13.6442999999999994 6.5420400000000001 12.5507000000000009 H
atom 12.9025999999999996 4.7988499999999998 13.9229000000000003 H
atom 11.0490999999999993 7.3956000000000000 13.1390999999999991 H
atom 10.3123000000000005 9.1165199999999995 10.5893999999999995 H
atom 13.0183000000000000 10.4776000000000007 10.3865999999999996 H
atom 10.6323000000000008 13.0891999999999999 10.6296999999999997 H
atom 9.5268099999999993 11.2614999999999998 11.7997999999999994 H
atom 12.3010999999999999 10.2829999999999995 12.6207999999999991 H
atom 10.5130999999999997 9.7598599999999998 14.0367999999999995 H
atom 11.3297000000000008 12.8394999999999992 13.2382000000000009 H
atom 12.1760999999999999 14.4827999999999992 10.6529000000000007 H
atom 14.9349000000000007 13.2362000000000002 10.4711999999999996 H
atom 15.4616000000000007 16.7277999999999984 10.6281999999999996 H
atom 13.3644999999999996 16.4577999999999989 11.8346000000000000 H
atom 14.3437000000000001 13.6934000000000005 12.6837000000000000 H
atom 12.8249999999999993 14.7759999999999998 14.0938999999999997 H
atom 15.7434999999999992 16.0482000000000014 13.2439000000000000 H
atom 17.5253000000000014 16.3997999999999990 10.6325000000000003 H
atom 18.2598999999999982 13.4623000000000008 10.4540000000000006 H
atom 21.3288000000000011 15.2178000000000004 10.5459999999999994 H
atom 19.8403999999999989 16.6960000000000015 11.7758000000000003 H
atom 18.2913999999999994 14.2186000000000003 12.6593000000000000 H
atom 18.2213999999999992 16.0853999999999999 14.0635999999999992 H
atom 21.0111999999999988 14.5747999999999998 13.1713000000000005 H
atom 22.3603999999999985 13.3984000000000005 10.5479000000000003 H
atom 20.5000000000000000 11.0081000000000007 10.3653999999999993 H
atom 23.7822999999999993 9.6740200000000005 10.4367999999999999 H
atom 24.0362000000000009 11.7611000000000008 11.6585999999999999 H
atom 21.1428000000000011 11.4356000000000009 12.5760000000000005 H
atom 22.5813999999999986 12.6416000000000004 13.9709000000000003 H
atom 23.1277000000000008 9.5251800000000006 13.0685000000000002 H
atom 20.3842999999999996 13.1931999999999992 8.5892900000000001 H
atom 21.3978000000000002 12.0044000000000004 7.7393599999999996 H
atom 18.6632999999999996 11.9074000000000009 8.2441200000000006 H
atom 16.4799000000000007 14.7192000000000007 8.6612500000000008 H
atom 18.0457000000000001 14.7484999999999999 7.8177899999999996 H
atom 16.4073999999999991 12.5654000000000003 8.3108799999999992 H
atom 12.8322000000000003 12.6861999999999995 8.6431400000000007 H
atom 13.8462999999999994 13.9001999999999999 7.8331799999999996 H
atom 14.4263999999999992 11.2393999999999998 8.2711799999999993 H
atom 12.0919000000000008 8.5271399999999993 8.5614200000000000 H
atom 11.7151999999999994 10.0785999999999998 7.7770999999999999 H
atom 14.1994000000000007 8.8997100000000007 8.1755099999999992 H
atom 14.9963999999999995 5.4035000000000002 8.4975299999999994 H
atom 13.5242000000000004 6.0159700000000003 7.7095799999999999 H
atom 15.9326000000000008 7.3430700000000000 8.1892099999999992 H
atom 19.1530999999999985 5.7699699999999998 8.4960900000000006 H
atom 17.7332999999999998 5.1024700000000003 7.6584800000000000 H
atom 18.2826999999999984 7.7378799999999996 8.2298399999999994 H
atom 20.5238000000000014 4.7157200000000001 13.0094999999999992 H
atom 22.6220999999999997 7.1075100000000004 13.8770000000000007 H
atom 19.5094999999999992 9.7406100000000002 8.2030799999999999 H
