INCAR created by Atomic Simulation Environment
 ENCUT = 415.000000
 SIGMA = 0.100000
 EDIFF = 1.00e-06
 ALGO = fast
 PREC = Accurate
 ICHARG = 1
 IDIPOL = 3
 ISMEAR = 0
 ISTART = 1
 NELM = 500
 NPAR = 8
 IVDW = 11
 LCHARG = .FALSE.
 LDIPOL = .TRUE.
 LVHAR = .TRUE.
 LVTOT = .TRUE.
 LWAVE = .FALSE.
 LREAL = Auto
