 C  H  N  O Br                          
   1.00000000000000     
    24.0270328647999989    0.0000000000000000    0.0000000000000000
     0.0000000000000000   24.0270328647999989    0.0000000000000000
     0.0000000000000000    0.0000000000000000   18.0000000000000000
   C    H    N    O    Br
    18     6     1     3     3
Direct
  0.5503191191891357  0.6021329481106213  0.1666666638115048
  0.3506787927345275  0.4289296623465497  0.1666666540797450
  0.4997386276078993  0.6879958545263408  0.1666666657837120
  0.6495812678843715  0.4293864246403740  0.1666666687883765
  0.4004827655197636  0.3988268809463849  0.1666666613289421
  0.4487671240313350  0.6599178262537854  0.1666666535590932
  0.5507893692213137  0.6600650354160511  0.1666666709106574
  0.5998659236481992  0.3991369910681139  0.1666666774058547
  0.6507410846312438  0.4875703820929898  0.1666666656585845
  0.3493395291726888  0.4871082091501990  0.1666666440786717
  0.3997455954038281  0.5156707662232514  0.1666666410429617
  0.4503373286679843  0.4283440425360714  0.1666666783706888
  0.4494021861449826  0.6019842680433825  0.1666666522118655
  0.5499190074675128  0.4284968530822509  0.1666666891439740
  0.6002429484936955  0.5159731263438425  0.1666666569787660
  0.4500699659764293  0.4865056822417676  0.1666666604312474
  0.4999041918474253  0.5731345062322935  0.1666666684916863
  0.5500070110845319  0.4866591436282057  0.1666666719569906
  0.5995389394619616  0.3538462757902249  0.1666666802563380
  0.6897127323322837  0.5106508979979421  0.1666666701649961
  0.4009548100854015  0.3535359420369253  0.1666666725793924
  0.3102892384434767  0.5100536159657816  0.1666666438798695
  0.4093063655981218  0.6821542354595966  0.1666666471325036
  0.5901894135978095  0.6824082476733757  0.1666666749618874
  0.4999933863478802  0.5154308318010290  0.1666666704837835
  0.3987119327266908  0.5737075057293629  0.1666666312028834
  0.6010936968710767  0.5740113753912380  0.1666666345893191
  0.5001741699923941  0.3985811322120970  0.1666667275863404
  0.2821133529538481  0.3892221642328407  0.1666666732016122
  0.7182390177008748  0.3898278625414518  0.1666666654189663
  0.4996366610305738  0.7672254528152154  0.1666666743760638
 
  0.00000000E+00  0.00000000E+00  0.00000000E+00
  0.00000000E+00  0.00000000E+00  0.00000000E+00
  0.00000000E+00  0.00000000E+00  0.00000000E+00
  0.00000000E+00  0.00000000E+00  0.00000000E+00
  0.00000000E+00  0.00000000E+00  0.00000000E+00
  0.00000000E+00  0.00000000E+00  0.00000000E+00
  0.00000000E+00  0.00000000E+00  0.00000000E+00
  0.00000000E+00  0.00000000E+00  0.00000000E+00
  0.00000000E+00  0.00000000E+00  0.00000000E+00
  0.00000000E+00  0.00000000E+00  0.00000000E+00
  0.00000000E+00  0.00000000E+00  0.00000000E+00
  0.00000000E+00  0.00000000E+00  0.00000000E+00
  0.00000000E+00  0.00000000E+00  0.00000000E+00
  0.00000000E+00  0.00000000E+00  0.00000000E+00
  0.00000000E+00  0.00000000E+00  0.00000000E+00
  0.00000000E+00  0.00000000E+00  0.00000000E+00
  0.00000000E+00  0.00000000E+00  0.00000000E+00
  0.00000000E+00  0.00000000E+00  0.00000000E+00
  0.00000000E+00  0.00000000E+00  0.00000000E+00
  0.00000000E+00  0.00000000E+00  0.00000000E+00
  0.00000000E+00  0.00000000E+00  0.00000000E+00
  0.00000000E+00  0.00000000E+00  0.00000000E+00
  0.00000000E+00  0.00000000E+00  0.00000000E+00
  0.00000000E+00  0.00000000E+00  0.00000000E+00
  0.00000000E+00  0.00000000E+00  0.00000000E+00
  0.00000000E+00  0.00000000E+00  0.00000000E+00
  0.00000000E+00  0.00000000E+00  0.00000000E+00
  0.00000000E+00  0.00000000E+00  0.00000000E+00
  0.00000000E+00  0.00000000E+00  0.00000000E+00
  0.00000000E+00  0.00000000E+00  0.00000000E+00
  0.00000000E+00  0.00000000E+00  0.00000000E+00
