#===============================================================================
# Created using the Atomic Simulation Environment (ASE)

# Wed Nov  6 16:25:09 2024

#=======================================================
lattice_vector 0.0000000000000000 6.1200000000000001 6.1200000000000001 
lattice_vector 6.1200000000000001 0.0000000000000000 6.1200000000000001 
lattice_vector 6.1200000000000001 6.1200000000000001 0.0000000000000000 
atom 0.0000000000000000 0.0000000000000000 0.0000000000000000 Au
atom 2.0400000000000000 2.0400000000000000 0.0000000000000000 Au
atom 4.0800000000000001 4.0800000000000001 0.0000000000000000 Au
atom 2.0400000000000000 0.0000000000000000 2.0400000000000000 Au
atom 4.0800000000000001 2.0400000000000000 2.0400000000000000 Au
atom 6.1200000000000001 4.0800000000000001 2.0400000000000000 Au
atom 4.0800000000000001 0.0000000000000000 4.0800000000000001 Au
atom 6.1200000000000001 2.0400000000000000 4.0800000000000001 Au
atom 8.1600000000000001 4.0800000000000001 4.0800000000000001 Au
atom 0.0000000000000000 2.0400000000000000 2.0400000000000000 Au
atom 2.0400000000000000 4.0800000000000001 2.0400000000000000 Au
atom 4.0800000000000001 6.1200000000000001 2.0400000000000000 Au
atom 2.0400000000000000 2.0400000000000000 4.0800000000000001 Au
atom 4.0800000000000001 4.0800000000000001 4.0800000000000001 Au
atom 6.1200000000000001 6.1200000000000001 4.0800000000000001 Au
atom 4.0800000000000001 2.0400000000000000 6.1200000000000001 Au
atom 6.1200000000000001 4.0800000000000001 6.1200000000000001 Au
atom 8.1600000000000001 6.1200000000000001 6.1200000000000001 Au
atom 0.0000000000000000 4.0800000000000001 4.0800000000000001 Au
atom 2.0400000000000000 6.1200000000000001 4.0800000000000001 Au
atom 4.0800000000000001 8.1600000000000001 4.0800000000000001 Au
atom 2.0400000000000000 4.0800000000000001 6.1200000000000001 Au
atom 4.0800000000000001 6.1200000000000001 6.1200000000000001 Au
atom 6.1200000000000001 8.1600000000000001 6.1200000000000001 Au
atom 4.0800000000000001 4.0800000000000001 8.1600000000000001 Au
atom 6.1200000000000001 6.1200000000000001 8.1600000000000001 Au
atom 8.1600000000000001 8.1600000000000001 8.1600000000000001 Au
